8-QUEENS 8 8 28 1
8 8 8 8 8 8 8 8
2 0 1 1 42
0 2 0
0 3 0
0 4 0
0 5 0
0 6 0
0 7 0
1 3 0
1 4 0
1 5 0
1 6 0
1 7 0
2 0 0
2 4 0
2 5 0
2 6 0
2 7 0
3 0 0
3 1 0
3 5 0
3 6 0
3 7 0
4 0 0
4 1 0
4 2 0
4 6 0
4 7 0
5 0 0
5 1 0
5 2 0
5 3 0
5 7 0
6 0 0
6 1 0
6 2 0
6 3 0
6 4 0
7 0 0
7 1 0
7 2 0
7 3 0
7 4 0
7 5 0
2 0 2 1 44
0 1 0
0 3 0
0 4 0
0 5 0
0 6 0
0 7 0
1 0 0
1 2 0
1 4 0
1 5 0
1 6 0
1 7 0
2 1 0
2 3 0
2 5 0
2 6 0
2 7 0
3 0 0
3 2 0
3 4 0
3 6 0
3 7 0
4 0 0
4 1 0
4 3 0
4 5 0
4 7 0
5 0 0
5 1 0
5 2 0
5 4 0
5 6 0
6 0 0
6 1 0
6 2 0
6 3 0
6 5 0
6 7 0
7 0 0
7 1 0
7 2 0
7 3 0
7 4 0
7 6 0
2 0 3 1 46
0 1 0
0 2 0
0 4 0
0 5 0
0 6 0
0 7 0
1 0 0
1 2 0
1 3 0
1 5 0
1 6 0
1 7 0
2 0 0
2 1 0
2 3 0
2 4 0
2 6 0
2 7 0
3 1 0
3 2 0
3 4 0
3 5 0
3 7 0
4 0 0
4 2 0
4 3 0
4 5 0
4 6 0
5 0 0
5 1 0
5 3 0
5 4 0
5 6 0
5 7 0
6 0 0
6 1 0
6 2 0
6 4 0
6 5 0
6 7 0
7 0 0
7 1 0
7 2 0
7 3 0
7 5 0
7 6 0
2 0 4 1 48
0 1 0
0 2 0
0 3 0
0 5 0
0 6 0
0 7 0
1 0 0
1 2 0
1 3 0
1 4 0
1 6 0
1 7 0
2 0 0
2 1 0
2 3 0
2 4 0
2 5 0
2 7 0
3 0 0
3 1 0
3 2 0
3 4 0
3 5 0
3 6 0
4 1 0
4 2 0
4 3 0
4 5 0
4 6 0
4 7 0
5 0 0
5 2 0
5 3 0
5 4 0
5 6 0
5 7 0
6 0 0
6 1 0
6 3 0
6 4 0
6 5 0
6 7 0
7 0 0
7 1 0
7 2 0
7 4 0
7 5 0
7 6 0
2 0 5 1 50
0 1 0
0 2 0
0 3 0
0 4 0
0 6 0
0 7 0
1 0 0
1 2 0
1 3 0
1 4 0
1 5 0
1 7 0
2 0 0
2 1 0
2 3 0
2 4 0
2 5 0
2 6 0
3 0 0
3 1 0
3 2 0
3 4 0
3 5 0
3 6 0
3 7 0
4 0 0
4 1 0
4 2 0
4 3 0
4 5 0
4 6 0
4 7 0
5 1 0
5 2 0
5 3 0
5 4 0
5 6 0
5 7 0
6 0 0
6 2 0
6 3 0
6 4 0
6 5 0
6 7 0
7 0 0
7 1 0
7 3 0
7 4 0
7 5 0
7 6 0
2 0 6 1 52
0 1 0
0 2 0
0 3 0
0 4 0
0 5 0
0 7 0
1 0 0
1 2 0
1 3 0
1 4 0
1 5 0
1 6 0
2 0 0
2 1 0
2 3 0
2 4 0
2 5 0
2 6 0
2 7 0
3 0 0
3 1 0
3 2 0
3 4 0
3 5 0
3 6 0
3 7 0
4 0 0
4 1 0
4 2 0
4 3 0
4 5 0
4 6 0
4 7 0
5 0 0
5 1 0
5 2 0
5 3 0
5 4 0
5 6 0
5 7 0
6 1 0
6 2 0
6 3 0
6 4 0
6 5 0
6 7 0
7 0 0
7 2 0
7 3 0
7 4 0
7 5 0
7 6 0
2 0 7 1 54
0 1 0
0 2 0
0 3 0
0 4 0
0 5 0
0 6 0
1 0 0
1 2 0
1 3 0
1 4 0
1 5 0
1 6 0
1 7 0
2 0 0
2 1 0
2 3 0
2 4 0
2 5 0
2 6 0
2 7 0
3 0 0
3 1 0
3 2 0
3 4 0
3 5 0
3 6 0
3 7 0
4 0 0
4 1 0
4 2 0
4 3 0
4 5 0
4 6 0
4 7 0
5 0 0
5 1 0
5 2 0
5 3 0
5 4 0
5 6 0
5 7 0
6 0 0
6 1 0
6 2 0
6 3 0
6 4 0
6 5 0
6 7 0
7 1 0
7 2 0
7 3 0
7 4 0
7 5 0
7 6 0
2 1 2 1 42
0 2 0
0 3 0
0 4 0
0 5 0
0 6 0
0 7 0
1 3 0
1 4 0
1 5 0
1 6 0
1 7 0
2 0 0
2 4 0
2 5 0
2 6 0
2 7 0
3 0 0
3 1 0
3 5 0
3 6 0
3 7 0
4 0 0
4 1 0
4 2 0
4 6 0
4 7 0
5 0 0
5 1 0
5 2 0
5 3 0
5 7 0
6 0 0
6 1 0
6 2 0
6 3 0
6 4 0
7 0 0
7 1 0
7 2 0
7 3 0
7 4 0
7 5 0
2 1 3 1 44
0 1 0
0 3 0
0 4 0
0 5 0
0 6 0
0 7 0
1 0 0
1 2 0
1 4 0
1 5 0
1 6 0
1 7 0
2 1 0
2 3 0
2 5 0
2 6 0
2 7 0
3 0 0
3 2 0
3 4 0
3 6 0
3 7 0
4 0 0
4 1 0
4 3 0
4 5 0
4 7 0
5 0 0
5 1 0
5 2 0
5 4 0
5 6 0
6 0 0
6 1 0
6 2 0
6 3 0
6 5 0
6 7 0
7 0 0
7 1 0
7 2 0
7 3 0
7 4 0
7 6 0
2 1 4 1 46
0 1 0
0 2 0
0 4 0
0 5 0
0 6 0
0 7 0
1 0 0
1 2 0
1 3 0
1 5 0
1 6 0
1 7 0
2 0 0
2 1 0
2 3 0
2 4 0
2 6 0
2 7 0
3 1 0
3 2 0
3 4 0
3 5 0
3 7 0
4 0 0
4 2 0
4 3 0
4 5 0
4 6 0
5 0 0
5 1 0
5 3 0
5 4 0
5 6 0
5 7 0
6 0 0
6 1 0
6 2 0
6 4 0
6 5 0
6 7 0
7 0 0
7 1 0
7 2 0
7 3 0
7 5 0
7 6 0
2 1 5 1 48
0 1 0
0 2 0
0 3 0
0 5 0
0 6 0
0 7 0
1 0 0
1 2 0
1 3 0
1 4 0
1 6 0
1 7 0
2 0 0
2 1 0
2 3 0
2 4 0
2 5 0
2 7 0
3 0 0
3 1 0
3 2 0
3 4 0
3 5 0
3 6 0
4 1 0
4 2 0
4 3 0
4 5 0
4 6 0
4 7 0
5 0 0
5 2 0
5 3 0
5 4 0
5 6 0
5 7 0
6 0 0
6 1 0
6 3 0
6 4 0
6 5 0
6 7 0
7 0 0
7 1 0
7 2 0
7 4 0
7 5 0
7 6 0
2 1 6 1 50
0 1 0
0 2 0
0 3 0
0 4 0
0 6 0
0 7 0
1 0 0
1 2 0
1 3 0
1 4 0
1 5 0
1 7 0
2 0 0
2 1 0
2 3 0
2 4 0
2 5 0
2 6 0
3 0 0
3 1 0
3 2 0
3 4 0
3 5 0
3 6 0
3 7 0
4 0 0
4 1 0
4 2 0
4 3 0
4 5 0
4 6 0
4 7 0
5 1 0
5 2 0
5 3 0
5 4 0
5 6 0
5 7 0
6 0 0
6 2 0
6 3 0
6 4 0
6 5 0
6 7 0
7 0 0
7 1 0
7 3 0
7 4 0
7 5 0
7 6 0
2 1 7 1 52
0 1 0
0 2 0
0 3 0
0 4 0
0 5 0
0 7 0
1 0 0
1 2 0
1 3 0
1 4 0
1 5 0
1 6 0
2 0 0
2 1 0
2 3 0
2 4 0
2 5 0
2 6 0
2 7 0
3 0 0
3 1 0
3 2 0
3 4 0
3 5 0
3 6 0
3 7 0
4 0 0
4 1 0
4 2 0
4 3 0
4 5 0
4 6 0
4 7 0
5 0 0
5 1 0
5 2 0
5 3 0
5 4 0
5 6 0
5 7 0
6 1 0
6 2 0
6 3 0
6 4 0
6 5 0
6 7 0
7 0 0
7 2 0
7 3 0
7 4 0
7 5 0
7 6 0
2 2 3 1 42
0 2 0
0 3 0
0 4 0
0 5 0
0 6 0
0 7 0
1 3 0
1 4 0
1 5 0
1 6 0
1 7 0
2 0 0
2 4 0
2 5 0
2 6 0
2 7 0
3 0 0
3 1 0
3 5 0
3 6 0
3 7 0
4 0 0
4 1 0
4 2 0
4 6 0
4 7 0
5 0 0
5 1 0
5 2 0
5 3 0
5 7 0
6 0 0
6 1 0
6 2 0
6 3 0
6 4 0
7 0 0
7 1 0
7 2 0
7 3 0
7 4 0
7 5 0
2 2 4 1 44
0 1 0
0 3 0
0 4 0
0 5 0
0 6 0
0 7 0
1 0 0
1 2 0
1 4 0
1 5 0
1 6 0
1 7 0
2 1 0
2 3 0
2 5 0
2 6 0
2 7 0
3 0 0
3 2 0
3 4 0
3 6 0
3 7 0
4 0 0
4 1 0
4 3 0
4 5 0
4 7 0
5 0 0
5 1 0
5 2 0
5 4 0
5 6 0
6 0 0
6 1 0
6 2 0
6 3 0
6 5 0
6 7 0
7 0 0
7 1 0
7 2 0
7 3 0
7 4 0
7 6 0
2 2 5 1 46
0 1 0
0 2 0
0 4 0
0 5 0
0 6 0
0 7 0
1 0 0
1 2 0
1 3 0
1 5 0
1 6 0
1 7 0
2 0 0
2 1 0
2 3 0
2 4 0
2 6 0
2 7 0
3 1 0
3 2 0
3 4 0
3 5 0
3 7 0
4 0 0
4 2 0
4 3 0
4 5 0
4 6 0
5 0 0
5 1 0
5 3 0
5 4 0
5 6 0
5 7 0
6 0 0
6 1 0
6 2 0
6 4 0
6 5 0
6 7 0
7 0 0
7 1 0
7 2 0
7 3 0
7 5 0
7 6 0
2 2 6 1 48
0 1 0
0 2 0
0 3 0
0 5 0
0 6 0
0 7 0
1 0 0
1 2 0
1 3 0
1 4 0
1 6 0
1 7 0
2 0 0
2 1 0
2 3 0
2 4 0
2 5 0
2 7 0
3 0 0
3 1 0
3 2 0
3 4 0
3 5 0
3 6 0
4 1 0
4 2 0
4 3 0
4 5 0
4 6 0
4 7 0
5 0 0
5 2 0
5 3 0
5 4 0
5 6 0
5 7 0
6 0 0
6 1 0
6 3 0
6 4 0
6 5 0
6 7 0
7 0 0
7 1 0
7 2 0
7 4 0
7 5 0
7 6 0
2 2 7 1 50
0 1 0
0 2 0
0 3 0
0 4 0
0 6 0
0 7 0
1 0 0
1 2 0
1 3 0
1 4 0
1 5 0
1 7 0
2 0 0
2 1 0
2 3 0
2 4 0
2 5 0
2 6 0
3 0 0
3 1 0
3 2 0
3 4 0
3 5 0
3 6 0
3 7 0
4 0 0
4 1 0
4 2 0
4 3 0
4 5 0
4 6 0
4 7 0
5 1 0
5 2 0
5 3 0
5 4 0
5 6 0
5 7 0
6 0 0
6 2 0
6 3 0
6 4 0
6 5 0
6 7 0
7 0 0
7 1 0
7 3 0
7 4 0
7 5 0
7 6 0
2 3 4 1 42
0 2 0
0 3 0
0 4 0
0 5 0
0 6 0
0 7 0
1 3 0
1 4 0
1 5 0
1 6 0
1 7 0
2 0 0
2 4 0
2 5 0
2 6 0
2 7 0
3 0 0
3 1 0
3 5 0
3 6 0
3 7 0
4 0 0
4 1 0
4 2 0
4 6 0
4 7 0
5 0 0
5 1 0
5 2 0
5 3 0
5 7 0
6 0 0
6 1 0
6 2 0
6 3 0
6 4 0
7 0 0
7 1 0
7 2 0
7 3 0
7 4 0
7 5 0
2 3 5 1 44
0 1 0
0 3 0
0 4 0
0 5 0
0 6 0
0 7 0
1 0 0
1 2 0
1 4 0
1 5 0
1 6 0
1 7 0
2 1 0
2 3 0
2 5 0
2 6 0
2 7 0
3 0 0
3 2 0
3 4 0
3 6 0
3 7 0
4 0 0
4 1 0
4 3 0
4 5 0
4 7 0
5 0 0
5 1 0
5 2 0
5 4 0
5 6 0
6 0 0
6 1 0
6 2 0
6 3 0
6 5 0
6 7 0
7 0 0
7 1 0
7 2 0
7 3 0
7 4 0
7 6 0
2 3 6 1 46
0 1 0
0 2 0
0 4 0
0 5 0
0 6 0
0 7 0
1 0 0
1 2 0
1 3 0
1 5 0
1 6 0
1 7 0
2 0 0
2 1 0
2 3 0
2 4 0
2 6 0
2 7 0
3 1 0
3 2 0
3 4 0
3 5 0
3 7 0
4 0 0
4 2 0
4 3 0
4 5 0
4 6 0
5 0 0
5 1 0
5 3 0
5 4 0
5 6 0
5 7 0
6 0 0
6 1 0
6 2 0
6 4 0
6 5 0
6 7 0
7 0 0
7 1 0
7 2 0
7 3 0
7 5 0
7 6 0
2 3 7 1 48
0 1 0
0 2 0
0 3 0
0 5 0
0 6 0
0 7 0
1 0 0
1 2 0
1 3 0
1 4 0
1 6 0
1 7 0
2 0 0
2 1 0
2 3 0
2 4 0
2 5 0
2 7 0
3 0 0
3 1 0
3 2 0
3 4 0
3 5 0
3 6 0
4 1 0
4 2 0
4 3 0
4 5 0
4 6 0
4 7 0
5 0 0
5 2 0
5 3 0
5 4 0
5 6 0
5 7 0
6 0 0
6 1 0
6 3 0
6 4 0
6 5 0
6 7 0
7 0 0
7 1 0
7 2 0
7 4 0
7 5 0
7 6 0
2 4 5 1 42
0 2 0
0 3 0
0 4 0
0 5 0
0 6 0
0 7 0
1 3 0
1 4 0
1 5 0
1 6 0
1 7 0
2 0 0
2 4 0
2 5 0
2 6 0
2 7 0
3 0 0
3 1 0
3 5 0
3 6 0
3 7 0
4 0 0
4 1 0
4 2 0
4 6 0
4 7 0
5 0 0
5 1 0
5 2 0
5 3 0
5 7 0
6 0 0
6 1 0
6 2 0
6 3 0
6 4 0
7 0 0
7 1 0
7 2 0
7 3 0
7 4 0
7 5 0
2 4 6 1 44
0 1 0
0 3 0
0 4 0
0 5 0
0 6 0
0 7 0
1 0 0
1 2 0
1 4 0
1 5 0
1 6 0
1 7 0
2 1 0
2 3 0
2 5 0
2 6 0
2 7 0
3 0 0
3 2 0
3 4 0
3 6 0
3 7 0
4 0 0
4 1 0
4 3 0
4 5 0
4 7 0
5 0 0
5 1 0
5 2 0
5 4 0
5 6 0
6 0 0
6 1 0
6 2 0
6 3 0
6 5 0
6 7 0
7 0 0
7 1 0
7 2 0
7 3 0
7 4 0
7 6 0
2 4 7 1 46
0 1 0
0 2 0
0 4 0
0 5 0
0 6 0
0 7 0
1 0 0
1 2 0
1 3 0
1 5 0
1 6 0
1 7 0
2 0 0
2 1 0
2 3 0
2 4 0
2 6 0
2 7 0
3 1 0
3 2 0
3 4 0
3 5 0
3 7 0
4 0 0
4 2 0
4 3 0
4 5 0
4 6 0
5 0 0
5 1 0
5 3 0
5 4 0
5 6 0
5 7 0
6 0 0
6 1 0
6 2 0
6 4 0
6 5 0
6 7 0
7 0 0
7 1 0
7 2 0
7 3 0
7 5 0
7 6 0
2 5 6 1 42
0 2 0
0 3 0
0 4 0
0 5 0
0 6 0
0 7 0
1 3 0
1 4 0
1 5 0
1 6 0
1 7 0
2 0 0
2 4 0
2 5 0
2 6 0
2 7 0
3 0 0
3 1 0
3 5 0
3 6 0
3 7 0
4 0 0
4 1 0
4 2 0
4 6 0
4 7 0
5 0 0
5 1 0
5 2 0
5 3 0
5 7 0
6 0 0
6 1 0
6 2 0
6 3 0
6 4 0
7 0 0
7 1 0
7 2 0
7 3 0
7 4 0
7 5 0
2 5 7 1 44
0 1 0
0 3 0
0 4 0
0 5 0
0 6 0
0 7 0
1 0 0
1 2 0
1 4 0
1 5 0
1 6 0
1 7 0
2 1 0
2 3 0
2 5 0
2 6 0
2 7 0
3 0 0
3 2 0
3 4 0
3 6 0
3 7 0
4 0 0
4 1 0
4 3 0
4 5 0
4 7 0
5 0 0
5 1 0
5 2 0
5 4 0
5 6 0
6 0 0
6 1 0
6 2 0
6 3 0
6 5 0
6 7 0
7 0 0
7 1 0
7 2 0
7 3 0
7 4 0
7 6 0
2 6 7 1 42
0 2 0
0 3 0
0 4 0
0 5 0
0 6 0
0 7 0
1 3 0
1 4 0
1 5 0
1 6 0
1 7 0
2 0 0
2 4 0
2 5 0
2 6 0
2 7 0
3 0 0
3 1 0
3 5 0
3 6 0
3 7 0
4 0 0
4 1 0
4 2 0
4 6 0
4 7 0
5 0 0
5 1 0
5 2 0
5 3 0
5 7 0
6 0 0
6 1 0
6 2 0
6 3 0
6 4 0
7 0 0
7 1 0
7 2 0
7 3 0
7 4 0
7 5 0
